46
11
5
10 4
9 2
5 4
8 5
4 3
7 2
10 3
1 0
2 4
10 1
4 3
10 2
8 2
4 1
4 2
3 2
8 2
1 4
7 1
5 1
10 3
1 4
6 2
10 2
9 5
7 3
4 1
3 4
4 1
2 3
1 4
4 2
2 4
11 3
8 5
3 3
7 0
3 2
4 3
11 1
7 2
2 3
3 5
1 4
2 3
7 2
